12      4       
9       8       9       11      
0       0       0       0       0       3       2       3       4       
7       0       0       0       4       1       11      
8       0       0       3       3       3       5       7       10      
10      1       0       0       0       2       6       8       
6       0       2       9       9       1       11      
8       6       0       0       3       2       7       10      
8       4       0       2       1       1       9       
5       2       6       0       0       2       9       11      
7       0       0       2       2       1       12      
3       0       7       0       3       1       12      
9       5       2       0       0       1       12      
0       0       0       0       0       0       